param set_len = 28;
param target_sum = 7169702648;
param values := [1] 29052867 [2] 804292956 [3] 715803085 [4] 472991763 [5] 753384327 [6] 119686515 [7] 470860009 [8] 729896038 [9] 25334163 [10] 789376175 [11] 117188502 [12] 583828297 [13] 1064524193 [14] 703345378 [15] 648504459 [16] 163916668 [17] 528820335 [18] 837297564 [19] 943677165 [20] 95551765 [21] 890325016 [22] 873873164 [23] 115505525 [24] 297975130 [25] 889348666 [26] 137539140 [27] 308856896 [28] 347594265 ;
